
  22   10
  10   10   10   10   10   10   10   10   10   10

   0   0   0   0   0   0   0   0   0   0   0  15 2 3 4 5 6 12 13 14 15 16 17 18 19 20 21 
   8   0   0   0   0   0   0   0   0   0  10   4 11 9 8 7 
   4   0   0   0   0   0  10   0   0   0   0   2 10 9 
   6  10   0   0   0   0   0   0   0   0   0   1 8 
   2   0   0   0  10   0   0   0   0   0   0   1 7 
   9   0   0   0   0   0   0   0   0  10   0   1 7 
   3   0   0   0   0   0   0   0  10   0   0   1 22
   9   0   0   0   0   0  10   0   0   0   0   1 22
   2  10   0   0   0   0   0   0   0   0   0   1 22
  10   0   0   0   0   0   0   0   0  10   0   1 22
  10   0   0   0   0   0  10   0   0   0   0   1 22
   6   0   0   0   0   0   0   0   0  10   0   1 22
   2   0  10   0   0   0   0   0   0   0   0   1 22
   8   0   0   0   0   0   0  10   0   0   0   1 22
   2   0   0   0   0   0   0   0   0  10   0   1 22
   7   0   0   0   0   0  10   0   0   0   0   1 22
   8   0  10   0   0   0   0   0   0   0   0   1 22
   1   0   0   0   0   0   0   0   0   0  10   1 22
   8  10   0   0   0   0   0   0   0   0   0   1 22
   5  10   0   0   0   0   0   0   0   0   0   1 22
   7   0   0   0   0   0   0   0   0  10   0   1 22
   0   0   0   0   0   0   0   0   0   0   0   0 
